Using license file /home/benedond/gurobi.lic
Using gurobi.env file
Set parameter Threads to value 1
Academic license - for non-commercial use only
Changed value of parameter TimeLimit to 300.0
   Prev: inf  Min: 0.0  Max: inf  Default: inf
Gurobi Optimizer version 9.0.1 build v9.0.1rc0 (linux64)
Optimize a model with 7825 rows, 7524 columns and 36948 nonzeros
Model fingerprint: 0x0533404a
Variable types: 120 continuous, 7404 integer (7404 binary)
Coefficient statistics:
  Matrix range     [2e-01, 5e+02]
  Objective range  [5e-03, 2e-01]
  Bounds range     [1e+00, 1e+00]
  RHS range        [1e+00, 3e+03]
Found heuristic solution: objective 4.5080109
Presolve removed 148 rows and 129 columns
Presolve time: 0.13s
Presolved: 7677 rows, 7395 columns, 36423 nonzeros
Variable types: 119 continuous, 7276 integer (7276 binary)

Root relaxation: objective 1.861910e+00, 7682 iterations, 0.55 seconds

    Nodes    |    Current Node    |     Objective Bounds      |     Work
 Expl Unexpl |  Obj  Depth IntInf | Incumbent    BestBd   Gap | It/Node Time

     0     0    1.86191    0  374    4.50801    1.86191  58.7%     -    0s
H    0     0                       3.3645508    1.86191  44.7%     -    1s
     0     0    1.90998    0  304    3.36455    1.90998  43.2%     -    2s
H    0     0                       3.2291739    1.90998  40.9%     -    2s
     0     0    1.91000    0  299    3.22917    1.91000  40.9%     -    2s
     0     0    2.03731    0  319    3.22917    2.03731  36.9%     -    2s
H    0     0                       3.1219892    2.03731  34.7%     -    5s
     0     0    2.04249    0  311    3.12199    2.04249  34.6%     -    5s
     0     0    2.13487    0  305    3.12199    2.13487  31.6%     -    5s
     0     0    2.15034    0  364    3.12199    2.15034  31.1%     -    8s
     0     0    2.16218    0  368    3.12199    2.16218  30.7%     -    8s
     0     0    2.16373    0  387    3.12199    2.16373  30.7%     -    8s
     0     0    2.16411    0  386    3.12199    2.16411  30.7%     -    8s
     0     0    2.16412    0  385    3.12199    2.16412  30.7%     -    8s
     0     0    2.19593    0  389    3.12199    2.19593  29.7%     -    9s
     0     0    2.21417    0  430    3.12199    2.21417  29.1%     -    9s
     0     0    2.22128    0  414    3.12199    2.22128  28.9%     -    9s
     0     0    2.22401    0  357    3.12199    2.22401  28.8%     -   10s
     0     0    2.22440    0  378    3.12199    2.22440  28.8%     -   10s
     0     0    2.22444    0  383    3.12199    2.22444  28.7%     -   10s
     0     0    2.23722    0  377    3.12199    2.23722  28.3%     -   10s
     0     0    2.23975    0  371    3.12199    2.23975  28.3%     -   10s
     0     0    2.24038    0  364    3.12199    2.24038  28.2%     -   10s
     0     0    2.24069    0  394    3.12199    2.24069  28.2%     -   10s
     0     0    2.24072    0  354    3.12199    2.24072  28.2%     -   10s
     0     0    2.25116    0  372    3.12199    2.25116  27.9%     -   11s
     0     0    2.25475    0  364    3.12199    2.25475  27.8%     -   11s
     0     0    2.25546    0  416    3.12199    2.25546  27.8%     -   11s
     0     0    2.25556    0  408    3.12199    2.25556  27.8%     -   11s
     0     0    2.26410    0  409    3.12199    2.26410  27.5%     -   12s
     0     0    2.26509    0  371    3.12199    2.26509  27.4%     -   12s
     0     0    2.26544    0  361    3.12199    2.26544  27.4%     -   12s
     0     0    2.26546    0  366    3.12199    2.26546  27.4%     -   12s
     0     0    2.26815    0  366    3.12199    2.26815  27.3%     -   12s
     0     0    2.26901    0  373    3.12199    2.26901  27.3%     -   12s
     0     0    2.26922    0  397    3.12199    2.26922  27.3%     -   12s
     0     0    2.27488    0  326    3.12199    2.27488  27.1%     -   13s
H    0     0                       3.0182681    2.27488  24.6%     -   16s
     0     0    2.27671    0  330    3.01827    2.27671  24.6%     -   17s
     0     0    2.27767    0  404    3.01827    2.27767  24.5%     -   17s
     0     0    2.27792    0  369    3.01827    2.27792  24.5%     -   17s
     0     0    2.28145    0  430    3.01827    2.28145  24.4%     -   17s
     0     0    2.28257    0  466    3.01827    2.28257  24.4%     -   17s
     0     0    2.28278    0  478    3.01827    2.28278  24.4%     -   18s
     0     0    2.28650    0  426    3.01827    2.28650  24.2%     -   18s
H    0     0                       2.9562246    2.28650  22.7%     -   33s
     0     0    2.28742    0  473    2.95622    2.28742  22.6%     -   33s
     0     0    2.28753    0  470    2.95622    2.28753  22.6%     -   34s
     0     0    2.28930    0  401    2.95622    2.28930  22.6%     -   34s
     0     0    2.28930    0  400    2.95622    2.28930  22.6%     -   38s
     0     2    2.28942    0  400    2.95622    2.28942  22.6%     -   41s
     2     4    2.34709    1  430    2.95622    2.29153  22.5%  2174   45s
    12    14    2.36207    9  422    2.95622    2.29231  22.5%  1259   50s
    28    30    2.30979   21  415    2.95622    2.29231  22.5%  1008   55s
    42    44    2.40845   31  408    2.95622    2.29231  22.5%  1041   60s
    54    56    2.41632   40  442    2.95622    2.29231  22.5%  1074   65s
    72    74    2.37690   52  357    2.95622    2.29231  22.5%  1030   70s
    99   101    2.41815   76  394    2.95622    2.29231  22.5%   887   87s
   123   125    2.42931   97  378    2.95622    2.29231  22.5%   798   90s
   173   175    2.48305  139  270    2.95622    2.29231  22.5%   688   95s
   245   247    2.74591  198  179    2.95622    2.29231  22.5%   597  100s
   394   368    2.38224    5  393    2.95622    2.29259  22.4%   448  105s
   442   416    2.42020   46  363    2.95622    2.29259  22.4%   443  110s
   493   467    2.51471   91  260    2.95622    2.29259  22.4%   444  115s
   511   484    2.90850  297  400    2.95622    2.29259  22.4%   438  125s
   516   487    2.53574   93  402    2.95622    2.29259  22.4%   434  130s
   521   491    2.32977   27  449    2.95622    2.30434  22.1%   430  135s
   527   495    2.37706   53  442    2.95622    2.32156  21.5%   425  140s
   534   499    2.38256    8  439    2.95622    2.33420  21.0%   419  145s
H  539   477                       2.9003841    2.34085  19.3%   415  166s
   544   480    2.34406   19  498    2.90038    2.34406  19.2%   411  170s
   549   483    2.72421  225  521    2.90038    2.34827  19.0%   408  175s
   556   488    2.43764  104  521    2.90038    2.35296  18.9%   403  180s
   562   492    2.43962  106  518    2.90038    2.35590  18.8%   398  185s
   569   497    2.76710  178  522    2.90038    2.35872  18.7%   393  190s
   576   501    2.72459  226  493    2.90038    2.36204  18.6%   389  196s
   581   505    2.85761  273  549    2.90038    2.36368  18.5%   385  200s
   587   509    2.40617   27  643    2.90038    2.36494  18.5%   381  205s
   593   513    2.59768  172  549    2.90038    2.36647  18.4%   377  210s
   598   516    2.73233  252  505    2.90038    2.36801  18.4%   374  215s
   604   520    2.36920   46  563    2.90038    2.36920  18.3%   371  220s
   610   524    2.48556   86  543    2.90038    2.37034  18.3%   367  225s
   616   528    2.53574   93  594    2.90038    2.37125  18.2%   363  230s
   622   532    2.37244   29  588    2.90038    2.37244  18.2%   360  235s
   628   536    2.40694   35  595    2.90038    2.37390  18.2%   356  240s
   634   540    2.38256    8  577    2.90038    2.37487  18.1%   353  245s
   641   545    2.42592   17  596    2.90038    2.37605  18.1%   349  250s
   646   548    2.47749   79  631    2.90038    2.37666  18.1%   346  255s
   653   553    2.47001  133  605    2.90038    2.37742  18.0%   343  260s
   660   557    2.50630  161  550    2.90038    2.37793  18.0%   339  265s
   666   561    2.44887  111  605    2.90038    2.37861  18.0%   336  270s
   673   567    2.48800  130  400    2.90038    2.37889  18.0%   603  275s
   676   569    2.72459  226  301    2.90038    2.37889  18.0%   601  281s
   680   572    2.42177   21  424    2.90038    2.37889  18.0%   597  285s
   684   574    2.90038  306  460    2.90038    2.37889  18.0%   593  290s
   689   578    2.50785   90  581    2.90038    2.37889  18.0%   589  295s
H  689   548                       2.8943406    2.37889  17.8%   589  300s

Cutting planes:
  Gomory: 5
  Cover: 19
  Implied bound: 11
  Projected implied bound: 1
  Clique: 29
  MIR: 312
  StrongCG: 6
  Flow cover: 751
  RLT: 29
  Relax-and-lift: 302

Explored 689 nodes (483994 simplex iterations) in 300.00 seconds
Thread count was 1 (of 4 available processors)

Solution count 8: 2.89434 2.90038 2.95622 ... 4.50801

Time limit reached
Best objective 2.894340599188e+00, best bound 2.378886904041e+00, gap 17.8090%
